Route #1: 65 4 60 61
Route #2: 33 34 74 96 32 25
Route #3: 89 58 83 15 78
Route #4: 31 86 12 24 22
Route #5: 21 42 23 16
Route #6: 88 44 30 37 38 73
Route #7: 43 79 66 26 40
Route #8: 54 94
Route #9: 76 80 51
Route #10: 82 52 84
Route #11: 92 53 101
Route #12: 72 63 100 99 90
Route #13: 47 36 13
Route #14: 28 98 20
Route #15: 62 9
Route #16: 39 48 49 27 57
Route #17: 2 71 93
Route #18: 95 97 68
Route #19: 87 55 69
Route #20: 8 3 46 50 7 29
Route #21: 67 10 17
Route #22: 70 56 77 91 85
Route #23: 75 14 5
Route #24: 41 35 18 81
Route #25: 45 64 11
Route #26: 59 19 6
